
Gurobi 11.0.2 (win64) logging started Sun Aug 18 13:30:01 2024

Set parameter LogFile to value "D:\Documenti\Scuola\Laurea magistrale unibs\laurea-unibs-mkfsp\output\2024-08-18T10_03_15.889499\logs\instance09_bucket10.log"
Set parameter TimeLimit to value 2.0097228329999962e+02
Set parameter MIPGap to value 0
Gurobi Optimizer version 11.0.2 build v11.0.2rc0 (win64 - Windows 10.0 (19045.2))

CPU model: Intel(R) Core(TM) i5-4670 CPU @ 3.40GHz, instruction set [SSE2|AVX|AVX2]
Thread count: 4 physical cores, 4 logical processors, using up to 4 threads

Optimize a model with 8697 rows, 45402 columns and 1276163 nonzeros
Model fingerprint: 0xa035e714
Variable types: 0 continuous, 45402 integer (45051 binary)
Coefficient statistics:
  Matrix range     [1e+00, 9e+03]
  Objective range  [6e+02, 9e+03]
  Bounds range     [1e+00, 1e+00]
  RHS range        [1e+00, 2e+06]
Presolve time: 3.02s
Presolved: 8697 rows, 45402 columns, 1276163 nonzeros
Variable types: 0 continuous, 45402 integer (45051 binary)
Deterministic concurrent LP optimizer: primal simplex, dual simplex, and barrier
Showing barrier log only...

Root barrier log...

Ordering time: 0.14s

Barrier statistics:
 AA' NZ     : 1.362e+06
 Factor NZ  : 1.493e+06 (roughly 30 MB of memory)
 Factor Ops : 6.839e+08 (less than 1 second per iteration)
 Threads    : 1

                  Objective                Residual
Iter       Primal          Dual         Primal    Dual     Compl     Time
   0   1.88275408e+08  2.06455265e+08  9.46e+06 0.00e+00  1.05e+06     5s
   1   4.65879279e+07  2.12455557e+08  2.15e+06 4.83e-13  2.55e+05     5s
   2   2.24122843e+06  2.01932679e+08  2.19e+04 6.99e-12  4.99e+03     5s
   3   1.83211608e+06  8.66894047e+07  1.44e+03 1.01e-11  1.15e+03     5s
   4   1.80570736e+06  1.21626381e+07  2.28e+00 2.06e-13  1.28e+02     6s
   5   1.86952914e+06  3.33148015e+06  4.24e-04 4.44e-14  1.80e+01     6s
   6   1.91578695e+06  2.22923948e+06  9.97e-05 4.09e-14  3.87e+00     6s
   7   1.93097404e+06  1.97103184e+06  7.32e-06 3.22e-14  4.94e-01     7s
   8   1.93359580e+06  1.93641918e+06  2.08e-07 4.62e-14  3.48e-02     7s
   9   1.93378741e+06  1.93472840e+06  2.87e-08 3.29e-14  1.16e-02     7s
  10   1.93381407e+06  1.93446859e+06  9.69e-09 3.11e-14  8.07e-03     7s
  11   1.93382775e+06  1.93390697e+06  1.60e-09 3.40e-14  9.77e-04     8s
  12   1.93383136e+06  1.93384707e+06  2.12e-10 3.29e-14  1.94e-04     8s
  13   1.93383191e+06  1.93383314e+06  9.47e-11 4.26e-14  1.52e-05     8s
  14   1.93383209e+06  1.93383245e+06  5.75e-13 3.24e-14  4.40e-06     8s
  15   1.93383237e+06  1.93383238e+06  4.48e-09 3.26e-14  1.32e-07     9s
  16   1.93383237e+06  1.93383237e+06  8.87e-09 4.62e-14  3.43e-09     9s

Barrier solved model in 16 iterations and 9.09 seconds (6.00 work units)
Optimal objective 1.93383237e+06

  Building initial crossover basis                                15s

Root crossover log...

     718 DPushes remaining with DInf 0.0000000e+00                16s
       0 DPushes remaining with DInf 0.0000000e+00                17s

   35876 PPushes remaining with PInf 0.0000000e+00                17s
   29452 PPushes remaining with PInf 0.0000000e+00                20s
   22186 PPushes remaining with PInf 0.0000000e+00                25s
   15356 PPushes remaining with PInf 0.0000000e+00                30s
    6644 PPushes remaining with PInf 0.0000000e+00                35s
       0 PPushes remaining with PInf 0.0000000e+00                38s

  Push phase complete: Pinf 0.0000000e+00, Dinf 5.3194378e-11     38s


Root simplex log...

Iteration    Objective       Primal Inf.    Dual Inf.      Time
   36439    1.9338324e+06   0.000000e+00   0.000000e+00     38s
Concurrent spin time: 4.70s (can be avoided by choosing Method=3)

Solved with barrier
   36439    1.9338324e+06   0.000000e+00   0.000000e+00     38s

Root relaxation: objective 1.933832e+06, 36439 iterations, 34.92 seconds (25.61 work units)
Total elapsed time = 85.95s (DegenMoves)
Total elapsed time = 126.88s (DegenMoves)
Total elapsed time = 174.75s (DegenMoves)

    Nodes    |    Current Node    |     Objective Bounds      |     Work
 Expl Unexpl |  Obj  Depth IntInf | Incumbent    BestBd   Gap | It/Node Time

     0     0 1933832.37    0 3046          - 1933832.37      -     -  200s

Explored 1 nodes (149864 simplex iterations) in 200.99 seconds (232.62 work units)
Thread count was 4 (of 4 available processors)

Solution count 0

Time limit reached
Best objective -, best bound 1.933832372893e+06, gap -
